c "546234.clq"
p edge 80 304
e 1 5
e 1 6
e 1 7
e 1 8
e 1 28
e 1 36
e 1 38
e 1 47
e 1 49
e 1 50
e 1 61
e 1 73
e 1 79
e 2 5
e 2 6
e 2 7
e 2 9
e 2 20
e 2 21
e 2 22
e 2 31
e 2 38
e 2 62
e 3 5
e 3 6
e 3 8
e 3 9
e 3 13
e 3 14
e 3 16
e 3 18
e 3 19
e 3 25
e 3 26
e 3 27
e 3 28
e 3 30
e 3 36
e 3 40
e 3 44
e 3 56
e 3 69
e 3 70
e 3 71
e 3 80
e 4 5
e 4 9
e 4 10
e 4 12
e 4 22
e 4 48
e 4 76
e 5 6
e 5 7
e 5 8
e 5 9
e 5 10
e 5 11
e 5 12
e 5 13
e 5 15
e 5 17
e 5 18
e 5 19
e 5 20
e 5 21
e 5 24
e 5 31
e 5 34
e 5 37
e 5 39
e 5 41
e 5 43
e 5 44
e 5 47
e 5 50
e 5 51
e 5 59
e 5 71
e 5 75
e 6 7
e 6 10
e 6 11
e 6 12
e 6 13
e 6 15
e 6 17
e 6 20
e 6 22
e 6 23
e 6 24
e 6 31
e 6 32
e 6 40
e 6 43
e 6 44
e 6 45
e 6 49
e 6 54
e 6 59
e 6 61
e 6 67
e 6 74
e 6 75
e 7 8
e 7 11
e 7 13
e 7 14
e 7 24
e 7 25
e 7 37
e 7 38
e 7 75
e 7 80
e 8 10
e 8 16
e 8 19
e 8 29
e 8 42
e 8 43
e 8 53
e 8 55
e 8 56
e 8 72
e 8 78
e 9 11
e 9 14
e 9 15
e 9 17
e 9 23
e 9 25
e 9 27
e 9 35
e 9 50
e 9 51
e 9 54
e 9 56
e 9 57
e 9 61
e 9 63
e 10 12
e 10 14
e 10 16
e 10 26
e 10 29
e 10 33
e 10 36
e 10 42
e 10 46
e 10 49
e 10 53
e 10 54
e 10 58
e 10 62
e 10 64
e 10 65
e 10 68
e 10 69
e 10 76
e 11 15
e 11 31
e 11 36
e 11 51
e 11 73
e 12 23
e 12 54
e 13 21
e 13 28
e 13 34
e 13 60
e 14 16
e 14 17
e 14 26
e 14 41
e 14 43
e 14 53
e 14 58
e 14 66
e 14 73
e 15 18
e 15 25
e 15 29
e 16 18
e 16 19
e 16 20
e 16 21
e 16 35
e 16 52
e 16 58
e 16 62
e 17 27
e 17 59
e 17 60
e 17 71
e 17 80
e 18 38
e 18 61
e 18 66
e 19 26
e 19 41
e 19 55
e 19 67
e 20 23
e 20 24
e 20 28
e 20 44
e 21 22
e 21 27
e 21 32
e 21 39
e 21 45
e 21 46
e 21 65
e 22 42
e 23 33
e 23 34
e 23 35
e 23 37
e 23 39
e 23 66
e 23 67
e 24 69
e 25 30
e 25 45
e 25 74
e 25 78
e 26 29
e 26 30
e 26 37
e 26 39
e 26 45
e 26 59
e 26 63
e 28 30
e 28 32
e 28 34
e 28 35
e 28 41
e 28 52
e 28 57
e 28 60
e 28 66
e 29 32
e 29 33
e 29 40
e 29 47
e 29 55
e 29 74
e 30 49
e 31 48
e 31 77
e 31 79
e 32 33
e 32 40
e 32 51
e 33 68
e 33 74
e 33 75
e 35 47
e 35 70
e 35 77
e 36 57
e 38 58
e 38 72
e 39 48
e 40 42
e 40 55
e 40 79
e 41 50
e 41 52
e 41 71
e 42 77
e 43 46
e 43 48
e 43 52
e 43 53
e 43 67
e 43 72
e 43 73
e 43 78
e 44 46
e 44 56
e 44 68
e 44 70
e 45 64
e 45 70
e 46 64
e 48 62
e 48 65
e 50 57
e 53 63
e 56 65
e 56 69
e 56 72
e 57 60
e 57 63
e 57 77
e 59 76
e 61 64
e 63 79
e 67 68
e 74 76
e 74 78
e 77 80
